
Gurobi 10.0.1 (linux64) logging started Sun Nov 26 15:41:48 2023

Set parameter LogFile to value "ArtificialInstance/ExperimentV2/S4T3K1/AdRo/gurobiSpRo48.txt"
Gurobi Optimizer version 10.0.1 build v10.0.1rc0 (linux64)

CPU model: AMD EPYC 7H12 64-Core Processor, instruction set [SSE2|AVX|AVX2]
Thread count: 128 physical cores, 128 logical processors, using up to 32 threads

Academic license 656792 - for non-commercial use only - registered to b.___@student.vu.nl
Optimize a model with 3819 rows, 3606 columns and 14307 nonzeros
Model fingerprint: 0x72dea564
Variable types: 1 continuous, 3605 integer (3605 binary)
Coefficient statistics:
  Matrix range     [1e+00, 4e+01]
  Objective range  [1e+00, 2e+01]
  Bounds range     [1e+00, 1e+00]
  RHS range        [1e+00, 1e+00]
Presolve removed 1399 rows and 1045 columns
Presolve time: 0.04s
Presolved: 2420 rows, 2561 columns, 9883 nonzeros
Variable types: 1 continuous, 2560 integer (2560 binary)
Found heuristic solution: objective 203.8894451

Root relaxation: objective 5.144510e+01, 803 iterations, 0.02 seconds (0.01 work units)

    Nodes    |    Current Node    |     Objective Bounds      |     Work
 Expl Unexpl |  Obj  Depth IntInf | Incumbent    BestBd   Gap | It/Node Time

     0     0   51.44510    0    9  203.88945   51.44510  74.8%     -    0s
H    0     0                      51.4450979   51.44510  0.00%     -    0s
     0     0   51.44510    0    9   51.44510   51.44510  0.00%     -    0s

Explored 1 nodes (1265 simplex iterations) in 0.12 seconds (0.07 work units)
Thread count was 32 (of 128 available processors)

Solution count 2: 51.4451 203.889 

Optimal solution found (tolerance 1.00e-04)
Best objective 5.144509790828e+01, best bound 5.144509790828e+01, gap 0.0000%
